33356
1 0 1 0 1 0 0 1 0 0 0 0 1 1 0 0 1 0 0 0 1 1 0 0 0 0 0 0 1 0 
7 28 21 16 2 12 21 28 16 28 4 28 13 13 28 7 13 20 16 0 7 16 2 0 20 7 0 28 4 2 4 4 4 16 28 12 20 20 16 16 7 20 12 4 20 4 13 21 28 20 0 16 2 16 20 12 7 20 7 7 4 0 7 20 13 12 2 28 28 12 7 12 4 20 13 13 20 0 20 16 13 0 20 7 4 13 4 2 0 7 28 4 7 7 2 13 28 12 0 28 28 21 12 7 4 0 4 16 16 13 4 4 28 12 12 20 28 7 0 20 20 12 28 4 4 16 2 12 4 0 28 21 12 20 13 20 13 13 28 20 12 16 12 12 7 2 16 21 0 7 0 0 13 0 20 28 2 16 13 13 13 0 20 2 2 28 2 4 13 21 13 20 28 20 4 2 0 20 4 13 2 21 2 28 12 20 28 13 0 21 2 21 12 4 7 12 7 21 13 28 

Total Run Time: 340147 ms.
